15 137 5 163 37 121 138 185 196 190 193 36 54 84 87 110 171 109 16 21 34 106 82 115 173 186 101 140 177 59 139 85 130 32 197 131 188 55 68 62 63 47 180 93 22 90 2 86 70 165 60 142 58 92 13 144 8 39 124 143 195 99 116 11 46 151 128 78 40 7 170 57 123 17 26 111 71 162 98 30 67 103 159 176 129 14 126 178 88 12 152 175 6 25 61 100 168 75 183 181 9 3 187 122 0 45 77 160 66 79 44 43 117 136 72 172 102 158 148 10 97 89 94 147 150 161 153 64 18 38 104 127 134 184 114 192 119 145 76 95 74 198 107 1 50 65 194 199 28 51 149 157 20 141 132 27 29 53 52 155 31 56 108 33 179 69 91 191 19 35 80 169 83 42 156 154 49 167 118 4 164 96 146 133 113 23 125 73 166 189 41 174 48 81 120 182 105 24 112 135